2
 10   100
   69   69   81   81   81   81   81   81   81   62
   62   62   62   62   62   62   62   62   62   62
   62   62   62   62   62   62   62   62   62   62
   62   62   62   62   62   62   62   62   62   36
   68   68   39   39   39   39   39   71   71   71
   71   71   71   71   71   71   71   71   71   71
   71   71   71   71   71   71   71   71   71   71
   71   71   71   71   71   71   71    5    5    5
    5    5    5    5    5    5    5    5    5    5
    5    5    5    5    5    5    5    5    5    5
    5    5    5    5    5    5    5    5    5    5
    5    5    5    5    5    5    5    5    5    5
    5    5    5   71   71   71   71   71   71   71
   71   71   71   71   71   71   71   71   71   71
   71   71   71   71   71   71   71   71   71   71
   71   71   71   39   39   39   39   39   68   68
   36   62   62   62   62   62   62   62   62   62
   62   62   62   62   62   62   62   62   62   62
   62   62   62   62   62   62   62   62   62   62
   62   81   81   81   81   81   81   81   69   69
 41
 5 6 7 11 14 15 17 22 24 27 36 37 38 39 41 43 48 53 55 58 64 65 66 67 68 70 74 77 78 79 80 82 84 85 88 92 93 94 96 98 99
 39
 1 2 4 5 8 14 15 19 21 23 26 27 28 31 42 46 47 48 50 51 52 56 57 59 63 65 67 70 72 75 78 79 83 87 90 91 93 95 97
 31
 1 3 10 16 18 26 28 29 30 34 35 37 39 40 43 45 49 54 55 56 58 60 63 72 74 85 88 95 96 98 100
 42
 4 7 9 10 11 13 17 18 19 20 22 25 28 30 32 33 36 45 50 56 57 59 61 62 64 66 67 69 70 74 78 80 81 82 85 86 87 90 91 93 97 100
 34
 1 4 6 13 16 17 18 20 21 23 26 27 29 33 34 36 45 47 53 55 57 62 67 70 71 73 75 77 78 79 81 87 89 94
 30
 1 2 3 6 7 12 15 23 28 31 34 35 38 42 44 51 59 60 66 68 69 71 72 73 75 87 91 94 98 100
 28
 11 12 25 29 30 34 37 39 40 43 50 51 52 53 54 60 64 65 73 76 77 80 83 84 86 89 92 97
 35
 2 3 4 6 8 9 13 16 19 21 27 30 31 32 37 41 45 46 48 49 52 61 64 66 72 74 75 76 81 86 90 91 92 96 99
 32
 5 7 8 12 14 22 24 25 26 29 31 32 33 35 36 38 41 44 46 47 50 51 53 61 62 63 67 71 76 82 83 88
 29
 5 9 10 20 21 24 33 39 42 44 47 48 49 54 58 59 60 62 68 69 70 73 77 79 84 86 89 90 93
